
--- Job #v2_PAMP Model2.gms Start 11/27/23 15:26:56 44.4.0 06604687 WEX-WEI x86 64bit/MS Windows
--- Applying:
    Q:\GAMS\44\gmsprmNT.txt
    C:\Users\redhawc\Documents\GAMS\gamsconfig.yaml
--- GAMS Parameters defined
    Input "C:\Users\redhawc\Desktop\EDI_BUSANA\mathematic\GAMS_CODE\PAMP\#v2_PAMP Model2.gms"
    PageSize 0
    ScrDir C:\Users\redhawc\Desktop\EDI_BUSANA\mathematic\GAMS_CODE\PAMP\225a\
    SysDir Q:\GAMS\44\
    LogOption 3
    ErrMsg 1
    ErrorLog 99
    IDE 1
    LstTitleLeftAligned 1
Licensee: Course License                                 S230704|0002AO-GEN
          University of Edinburgh, Business School                  DCE2899
          C:\Users\redhawc\Documents\GAMS\gamslice.txt
          License Admin: Douglas Alem, douglas.alem@ed.ac.uk               
          Course license for use within the course and related course work
Processor information: 1 socket(s), 8 core(s), and 16 thread(s) available
GAMS 44.4.0   Copyright (C) 1987-2023 GAMS Development. All rights reserved
--- Starting compilation
--- #v2_PAMP Model2.gms(554) 3 Mb
--- Starting execution: elapsed 0:00:00.010
--- #v2_PAMP Model2.gms(462) 4 Mb
--- Generating MIP model crop_profit_model
--- #v2_PAMP Model2.gms(551) 5 Mb
---   6,642 rows  1,354 columns  14,095 non-zeroes
---   99 discrete-columns
--- Range statistics (absolute non-zero finite values)
--- RHS       [min, max] : [ 9.800E+02, 9.536E+07] - Zero values observed as well
--- Bound     [min, max] : [ 1.000E+00, 1.000E+00] - Zero values observed as well
--- Matrix    [min, max] : [ 1.000E-06, 1.000E+09]
--- Executing CPLEX (Solvelink=2): elapsed 0:00:00.030

IBM ILOG CPLEX   44.4.0 06604687 Sep 19, 2023          WEI x86 64bit/MS Window

--- GAMS/CPLEX licensed for continuous and discrete problems.
--- GMO setup time: 0.00s
--- Space for names approximately 0.33 Mb
--- Use option 'names no' to turn use of names off
--- GMO memory 1.90 Mb (peak 1.91 Mb)
--- Dictionary memory 0.00 Mb
--- Cplex 22.1.1.0 link memory 0.10 Mb (peak 0.61 Mb)
--- Starting Cplex

Version identifier: 22.1.1.0 | 2022-11-27 | 9160aff4d
CPXPARAM_Advance                                 0
CPXPARAM_Threads                                 1
CPXPARAM_MIP_Display                             4
CPXPARAM_MIP_Pool_Capacity                       0
CPXPARAM_MIP_Tolerances_AbsMIPGap                0
Generic callback                                 0x50
Tried aggregator 2 times.
MIP Presolve eliminated 6374 rows and 876 columns.
MIP Presolve modified 198 coefficients.
Aggregator did 9 substitutions.
Reduced MIP has 258 rows, 469 columns, and 1261 nonzeros.
Reduced MIP has 90 binaries, 0 generals, 0 SOSs, and 0 indicators.
Presolve time = 0.00 sec. (5.31 ticks)
Found incumbent of value 6.2170902e+12 after 0.00 sec. (6.52 ticks)
Probing time = 0.00 sec. (0.05 ticks)
Tried aggregator 1 time.
Detecting symmetries...
MIP Presolve eliminated 22 rows and 22 columns.
MIP Presolve modified 16 coefficients.
Reduced MIP has 236 rows, 447 columns, and 1217 nonzeros.
Reduced MIP has 79 binaries, 0 generals, 0 SOSs, and 0 indicators.
Presolve time = 0.00 sec. (0.69 ticks)
Probing time = 0.00 sec. (0.05 ticks)
MIP emphasis: balance optimality and feasibility.
MIP search method: dynamic search.
Parallel mode: none, using 1 thread.
Tried aggregator 1 time.
LP Presolve eliminated 28 rows and 35 columns.
Aggregator did 16 substitutions.
Reduced LP has 192 rows, 396 columns, and 1061 nonzeros.
Presolve time = 0.00 sec. (0.30 ticks)

Iteration log . . .
Iteration:     1   Scaled dual infeas =       2666000.000000
Iteration:    64   Dual objective     = 60335377744709.914062
Iteration:   142   Dual objective     = 47166470786714.890625
Markowitz threshold set to 0.1
Iteration:   145   Dual objective     = 44354383226377.289062
Initializing dual steep norms . . .
Root relaxation solution time = 0.00 sec. (0.94 ticks)

        Nodes                                         Cuts/
   Node  Left     Objective  IInf  Best Integer    Best Bound    ItCnt     Gap

*     0+    0                       3.91567e+13   6.03403e+13            54.10%
Found incumbent of value 3.9156712e+13 after 0.02 sec. (20.78 ticks)
      0     0   3.91567e+13     1   3.91567e+13   3.91567e+13      158    0.00%
      0     0        cutoff         3.91567e+13   3.91567e+13      158    0.00%
Elapsed time = 0.02 sec. (20.92 ticks, tree = 0.01 MB)

Root node processing (before b&c):
  Real time             =    0.02 sec. (20.94 ticks)
Sequential b&c:
  Real time             =    0.00 sec. (0.00 ticks)
                          ------------
Total (root+branch&cut) =    0.02 sec. (20.94 ticks)

--- MIP status (101): integer optimal solution.
--- Cplex Time: 0.02sec (det. 20.95 ticks)

--- Returning a primal only solution to GAMS (marginals all set to NA).
--- Fixing integer variables and solving final LP...

Version identifier: 22.1.1.0 | 2022-11-27 | 9160aff4d
CPXPARAM_Advance                                 2
CPXPARAM_Threads                                 1
CPXPARAM_MIP_Display                             4
CPXPARAM_MIP_Pool_Capacity                       0
CPXPARAM_MIP_Tolerances_AbsMIPGap                0
Tried aggregator 1 time.
LP Presolve eliminated 6409 rows and 696 columns.
Reduced LP has 232 rows, 658 columns, and 1636 nonzeros.
Presolve time = 0.00 sec. (3.22 ticks)

Iteration log . . .
Iteration:     1   Scaled dual infeas =        357409.171500
Iteration:    35   Dual objective     = 58411592248003.312500

--- Fixed MIP status (1): optimal.
--- Cplex Time: 0.00sec (det. 5.67 ticks)


Proven optimal solution
MIP Solution:  39156711573340.546875    (158 iterations, 0 nodes)
Final Solve:   39156711573340.546875    (101 iterations)

Best possible: 39156711573340.546875
Absolute gap:            0.000000
Relative gap:            0.000000

--- Reading solution for model crop_profit_model
--- Executing after solve: elapsed 0:00:00.140
--- #v2_PAMP Model2.gms(552) 5 Mb
*** Status: Normal completion
--- Job #v2_PAMP Model2.gms Stop 11/27/23 15:26:56 elapsed 0:00:00.140
